Monkhorst Pack
0
M
15   15   15
0   0   0

