Cu4
1.0
   3.6212620000000002    0.0000000000000000    0.0000000000000002
   0.0000000000000006    3.6212620000000002    0.0000000000000002
   0.0000000000000000    0.0000000000000000    3.6212620000000002
   A_element   X_element    B_element
1    3    1
direct
   0.0000000000000000    0.0000000000000000    0.0000000000000000 Cu
   0.0000000000000000    0.5000000000000000    0.5000000000000000 Cu
   0.5000000000000000    0.0000000000000000    0.5000000000000000 Cu
   0.5000000000000000    0.5000000000000000    0.0000000000000000 Cu
   0.5                                  0.5                                  0.5
