SYSTEM = Al4Be
ISYM   = 0
PREC   = Normal
ENCUT  = 400
IALGO  = 38
EDIFF  = 1E-5
EDIFFG = -0.01
LREAL  = Auto
ISIF   = 2
NELM   = 200
NELMIN = 6
NSW    = 3000
IBRION = 0
TEBEG  = 300
TEEND  = 300
SMASS  = 0
POTIM  = 1.0
ISMEAR = 0
SIGMA  = 0.05
NWRITE = 2
LWAVE  = .FALSE.
LCHARG = .FALSE.
ML_LMLFF = .TRUE.
ML_ISTART = 0
NCORE  = 4
