K-Spacing Value to Generate K-Mesh: 1.000
0
Gamma
   1   1   1
0.0  0.0  0.0
